Fatranská
04	57
05	12	25	37	47	57
06	07	17	27	37	47	57
07	07	17	27	42	59
08	17	37	57
09	17	37	57
10	17	37	57
11	17	37	57
12	17	37	57
13	17	27	37	47	57
14	07	17	27	37	47	57
15	07	17	27	37	47	57
16	07	22	37	52
17	07	22	37	52
18	07	22	37	57
19	17	37	57
20	22	47
21	12	37
22	05	22

04	57
05	12	27	42	54
06	06	18	30	42	54
07	06	18	30	42	57
08	17	37	57
09	17	37	57
10	17	37	57
11	17	37	57
12	17	37	57
13	17	32	47
14	02	17	32	47
15	02	17	32	47
16	02	17	32	47
17	02	17	32	47
18	02	17	37	57
19	17	37	57
20	22	47
21	12	37
22	05	22

04	57
05	22	47
06	17	42
07	07	32	57
08	17	37	57
09	17	37	57
10	17	37	57
11	17	37	57
12	17	37	57
13	17	37	57
14	17	37	57
15	17	37	57
16	17	37	57
17	17	37	57
18	17	37	57
19	17	37	57
20	22	47
21	12	37
22	12
Matice slovenskej
04	59
05	14	27	39	49	59
06	09	19	29	39	49	59
07	09	19	29	44
08	01	19	39	59
09	19	39	59
10	19	39	59
11	19	39	59
12	19	39	59
13	19	29	39	49	59
14	09	19	29	39	49	59
15	09	19	29	39	49	59
16	09	24	39	54
17	09	24	39	54
18	09	24	39	59
19	19	39	59
20	24	49
21	14	39
22	07	24

04	59
05	14	29	44	56
06	08	20	32	44	56
07	08	20	32	44	59
08	19	39	59
09	19	39	59
10	19	39	59
11	19	39	59
12	19	39	59
13	19	34	49
14	04	19	34	49
15	04	19	34	49
16	04	19	34	49
17	04	19	34	49
18	04	19	39	59
19	19	39	59
20	24	49
21	14	39
22	07	24

04	59
05	24	49
06	19	44
07	09	34	59
08	19	39	59
09	19	39	59
10	19	39	59
11	19	39	59
12	19	39	59
13	19	39	59
14	19	39	59
15	19	39	59
16	19	39	59
17	19	39	59
18	19	39	59
19	19	39	59
20	24	49
21	14	39
22	14